
Gurobi 9.1.2 (linux64) logging started Mon Jul  5 16:52:23 2021


Gurobi 9.1.2 (linux64) logging started Mon Jul  5 16:52:33 2021

Gurobi Optimizer version 9.1.2 build v9.1.2rc0 (linux64)
Thread count: 40 physical cores, 40 logical processors, using up to 32 threads
Optimize a model with 3249914 rows, 1314095 columns and 9541935 nonzeros
Model fingerprint: 0x38fd2220
Coefficient statistics:
  Matrix range     [3e-04, 1e+00]
  Objective range  [1e+01, 4e+05]
  Bounds range     [4e-02, 8e+06]
  RHS range        [6e+00, 1e+09]
Presolve removed 294216 rows and 1243399 columns (presolve time = 25s) ...
Presolve removed 294216 rows and 1243404 columns (presolve time = 26s) ...
Presolve removed 403803 rows and 1373090 columns
Presolve time: 29.12s
Presolved: 910292 rows, 1876919 columns, 4950180 nonzeros
Elapsed ordering time = 44s
Elapsed ordering time = 46s
Elapsed ordering time = 50s
Ordering time: 57.78s

Barrier statistics:
 Dense cols : 2
 Free vars  : 3835
 AA' NZ     : 8.192e+06
 Factor NZ  : 6.639e+07 (roughly 1.7 GBytes of memory)
 Factor Ops : 1.134e+10 (less than 1 second per iteration)
 Threads    : 32

                  Objective                Residual
Iter       Primal          Dual         Primal    Dual     Compl     Time
   0  -5.44745323e+14  7.31092334e+11  3.59e+04 6.51e+06  1.25e+11   112s
   1  -4.37162602e+14  4.32174259e+14  9.74e+03 5.36e+07  5.74e+10   134s
   2  -3.82931494e+14  3.96185762e+14  3.79e+03 2.95e+07  3.17e+10   165s
   3  -3.26540769e+14  3.36747635e+14  1.59e+03 1.56e+07  1.68e+10   204s
   4  -3.13942783e+14  2.75534368e+14  1.40e+03 7.75e+06  8.69e+09   235s
   5  -2.98773961e+14  1.24258505e+14  1.27e+03 6.45e+06  7.33e+09   256s
   6  -2.85206306e+14 -1.47775144e+13  1.15e+03 5.64e+06  6.42e+09   279s
   7  -2.81651433e+14 -2.52317125e+14  1.12e+03 5.46e+06  6.22e+09   299s
   8  -2.80802923e+14 -3.06767538e+14  1.11e+03 5.45e+06  6.21e+09   326s
   9  -2.79326076e+14 -6.87493944e+14  1.10e+03 5.39e+06  6.14e+09   357s
  10  -2.79145120e+14 -9.79411248e+14  1.10e+03 5.38e+06  6.12e+09   385s
  11  -2.78805940e+14 -1.27473845e+15  1.10e+03 5.37e+06  6.11e+09   414s
  12  -2.78680796e+14 -1.52473462e+15  1.09e+03 5.37e+06  5.80e+09   448s
  13  -2.78561643e+14 -2.17575244e+15  1.09e+03 5.36e+06  5.57e+09   482s
  14  -2.78443968e+14 -4.48362304e+15  1.09e+03 5.36e+06  5.57e+09   515s
  15  -2.78277794e+14 -2.18872962e+16  1.09e+03 5.34e+06  5.57e+09   548s
  16  -2.78139950e+14 -4.77162519e+16  1.09e+03 5.34e+06  5.42e+09   581s
  17  -2.78081420e+14 -3.92990045e+17  1.09e+03 5.33e+06  5.47e+09   615s
  18  -2.78044759e+14 -2.09493407e+18  1.09e+03 5.32e+06  6.23e+09   654s
  19  -2.77951409e+14 -7.88087480e+19  1.09e+03 5.30e+06  2.84e+10   700s
  20  -5.44745323e+14  7.31092334e+11  3.59e+04 6.51e+06  1.25e+11   756s
  21  -8.73235052e+13 -4.43446887e+13  2.19e+03 1.42e+07  4.13e+09   822s
  22  -6.42579514e+13 -3.53078753e+13  1.35e+03 6.72e+06  1.69e+09   859s
  23  -1.07601217e+14 -7.10172436e+13  1.50e+03 5.99e+06  2.59e+09   945s
  24  -7.56984903e+14 -1.24410591e+14  2.17e+03 5.40e+06  1.61e+10  1009s
  25  -4.97414924e+15 -1.32020145e+15  1.54e+03 6.20e+06  1.10e+11  1070s
  26* -6.90439721e+16 -7.41948443e+15  9.05e+02 2.92e+07  2.68e+07  1123s
  27* -3.38493249e+16 -2.18259128e+16  2.83e+02 3.69e+06  3.57e+06  1164s
  28* -5.64440932e+17 -1.95669339e+17  1.99e+01 2.04e+05  1.94e+05  1198s
  29* -1.08520434e+18 -1.55721264e+18  9.26e+00 8.81e+04  8.82e+04  1223s
  30* -8.20311612e+18 -5.68432539e+18  1.39e+00 1.34e+04  1.30e+04  1249s
  31* -6.01424737e+19 -2.93438631e+19  2.02e-01 1.42e+03  1.38e+03  1274s
  32* -6.01432261e+19 -2.93440606e+19  2.03e-01 1.37e+03  1.31e+03  1300s
  33* -6.01435787e+19 -2.93441500e+19  2.03e-01 1.33e+03  1.26e+03  1328s
  34* -6.02668625e+19 -2.95803141e+19  2.02e-01 1.33e+03  1.25e+03  1367s
  35* -6.02669936e+19 -2.95804687e+19  2.02e-01 1.33e+03  1.25e+03  1409s
  36* -6.03320136e+19 -2.97529866e+19  2.01e-01 1.29e+03  1.21e+03  1444s
  37* -6.03326055e+19 -2.97533524e+19  2.01e-01 1.26e+03  1.17e+03  1480s
  38* -6.04602910e+19 -3.00464109e+19  2.00e-01 1.26e+03  1.17e+03  1515s
  39* -6.04866271e+19 -3.00664888e+19  2.00e-01 1.26e+03  1.16e+03  1546s
  40* -6.05964303e+19 -3.03270022e+19  2.00e-01 1.23e+03  1.13e+03  1577s
  41* -6.06510413e+19 -3.04279818e+19  1.99e-01 1.21e+03  1.10e+03  1607s
  42* -6.07970888e+19 -3.05553033e+19  1.99e-01 1.21e+03  1.10e+03  1640s
  43* -6.07974929e+19 -3.05555312e+19  1.99e-01 1.21e+03  1.10e+03  1675s
  44* -6.10526207e+19 -3.07345640e+19  1.97e-01 1.19e+03  1.08e+03  1706s
  45* -6.10524953e+19 -3.07343131e+19  1.97e-01 1.17e+03  1.06e+03  1739s
  46* -6.13387305e+19 -3.08928550e+19  1.96e-01 1.17e+03  1.05e+03  1770s
  47* -6.13384791e+19 -3.08925123e+19  1.96e-01 1.17e+03  1.05e+03  1807s
  48* -6.14689812e+19 -3.09686741e+19  1.96e-01 1.15e+03  1.03e+03  1838s
  49* -6.15253940e+19 -3.10026090e+19  1.96e-01 1.14e+03  1.02e+03  1869s
  50* -6.17592537e+19 -3.11822739e+19  1.95e-01 1.14e+03  1.02e+03  1900s
  51* -6.19514797e+19 -3.13099495e+19  1.94e-01 1.13e+03  1.01e+03  1932s

Barrier performed 51 iterations in 1932.90 seconds
Numerical trouble encountered


User-callback calls 62920, time in user-callback 0.09 sec

Gurobi 9.1.2 (linux64) logging started Mon Jul  5 20:36:09 2021


Gurobi 9.1.2 (linux64) logging started Mon Jul  5 20:36:17 2021

Gurobi Optimizer version 9.1.2 build v9.1.2rc0 (linux64)
Thread count: 40 physical cores, 40 logical processors, using up to 32 threads
Optimize a model with 3118434 rows, 1314095 columns and 9410455 nonzeros
Model fingerprint: 0x3119ac81
Coefficient statistics:
  Matrix range     [3e-04, 1e+00]
  Objective range  [1e+01, 4e+05]
  Bounds range     [4e-02, 8e+06]
  RHS range        [6e+00, 3e+07]

Concurrent LP optimizer: primal simplex, dual simplex, and barrier
Showing barrier log only...

Warning: Concurrent optimizer requires crossover - forcing it on
Presolve removed 2323998 rows and 220739 columns (presolve time = 5s) ...
Presolve removed 2338326 rows and 235412 columns (presolve time = 10s) ...
Presolve removed 2351567 rows and 249005 columns (presolve time = 15s) ...
Presolve removed 2363459 rows and 261225 columns (presolve time = 20s) ...
Presolve removed 2376173 rows and 274264 columns (presolve time = 25s) ...
Presolve removed 2386450 rows and 284868 columns (presolve time = 30s) ...
Presolve removed 2397102 rows and 295847 columns (presolve time = 35s) ...
Presolve removed 2407195 rows and 306275 columns (presolve time = 40s) ...
Presolve removed 2413916 rows and 313383 columns (presolve time = 45s) ...
Presolve removed 2420714 rows and 320572 columns (presolve time = 50s) ...
Presolve removed 2427395 rows and 327642 columns (presolve time = 55s) ...
Presolve removed 2433678 rows and 334513 columns (presolve time = 60s) ...
Presolve removed 2439443 rows and 340915 columns (presolve time = 65s) ...
Presolve removed 2445217 rows and 347382 columns (presolve time = 70s) ...
Presolve removed 2450681 rows and 353480 columns (presolve time = 75s) ...
Presolve removed 2454310 rows and 357602 columns (presolve time = 80s) ...
Presolve removed 2457255 rows and 361109 columns (presolve time = 85s) ...
Presolve removed 2460454 rows and 364727 columns (presolve time = 90s) ...
Presolve removed 2463746 rows and 368538 columns (presolve time = 95s) ...
Presolve removed 2466941 rows and 372309 columns (presolve time = 100s) ...
Presolve removed 2470301 rows and 376109 columns (presolve time = 105s) ...
Presolve removed 2473119 rows and 379521 columns (presolve time = 110s) ...
Presolve removed 2476714 rows and 383610 columns (presolve time = 115s) ...
Presolve removed 2480800 rows and 388203 columns (presolve time = 120s) ...
Presolve removed 2484087 rows and 391841 columns (presolve time = 125s) ...
Presolve removed 2488579 rows and 396674 columns (presolve time = 130s) ...
Presolve removed 2493079 rows and 401479 columns (presolve time = 135s) ...
Presolve removed 2497577 rows and 406311 columns (presolve time = 140s) ...
Presolve removed 2500873 rows and 409971 columns (presolve time = 145s) ...
Presolve removed 2508101 rows and 417597 columns (presolve time = 150s) ...
Presolve removed 2518793 rows and 428573 columns (presolve time = 155s) ...
Presolve removed 2528564 rows and 438637 columns (presolve time = 160s) ...
Presolve removed 2536886 rows and 447248 columns (presolve time = 165s) ...
Presolve removed 2542809 rows and 453515 columns (presolve time = 170s) ...
Presolve removed 2548734 rows and 459762 columns (presolve time = 175s) ...
Presolve removed 2553270 rows and 464661 columns (presolve time = 180s) ...
Presolve removed 2558766 rows and 470487 columns (presolve time = 185s) ...
Presolve removed 2563170 rows and 475290 columns (presolve time = 190s) ...
Presolve removed 2567084 rows and 480054 columns (presolve time = 195s) ...
Presolve removed 2571599 rows and 485304 columns (presolve time = 200s) ...
Presolve removed 2575784 rows and 490223 columns (presolve time = 205s) ...
Presolve removed 2579829 rows and 495012 columns (presolve time = 210s) ...
Presolve removed 2586649 rows and 502191 columns (presolve time = 215s) ...
Presolve removed 2592796 rows and 508718 columns (presolve time = 220s) ...
Presolve removed 2598273 rows and 659439 columns (presolve time = 227s) ...
Presolve removed 2607192 rows and 668358 columns (presolve time = 230s) ...
Presolve removed 2818151 rows and 671330 columns
Presolve time: 232.59s
Presolved: 300283 rows, 853724 columns, 2057869 nonzeros

Ordering time: 0.67s

Barrier statistics:
 AA' NZ     : 1.167e+06
 Factor NZ  : 1.056e+07 (roughly 600 MBytes of memory)
 Factor Ops : 9.989e+08 (less than 1 second per iteration)
 Threads    : 30

                  Objective                Residual
Iter       Primal          Dual         Primal    Dual     Compl     Time
   0   1.35573736e+14 -6.28261975e+12  5.60e+11 4.39e+02  6.27e+09   244s
   1   3.79372344e+13 -6.49770186e+12  8.85e+10 8.99e+01  9.92e+08   253s
   2   1.74767126e+12 -5.81704963e+12  6.74e+08 4.55e-12  1.18e+07   264s
   3   1.29189319e+12 -2.36240356e+12  7.93e+07 6.59e-12  2.93e+06   279s
   4   1.13228602e+12  1.63281364e+11  1.14e+07 1.83e-11  6.71e+05   292s
   5   1.01654118e+12  6.61269277e+11  2.39e+06 6.66e-12  2.30e+05   300s
   6   9.76851710e+11  8.49809952e+11  8.72e+05 4.61e-12  8.26e+04   309s
   7   9.66429320e+11  9.13028244e+11  4.66e+05 3.02e-12  3.58e+04   318s
   8   9.61309627e+11  9.40945683e+11  2.14e+05 3.48e-12  1.40e+04   326s
   9   9.58095074e+11  9.54544724e+11  5.41e+04 3.02e-12  2.58e+03   337s
  10   9.57478204e+11  9.56122889e+11  2.53e+04 2.57e-12  9.97e+02   346s
  11   9.57085819e+11  9.56784856e+11  7.06e+03 2.57e-12  2.19e+02   357s
  12   9.56982332e+11  9.56880090e+11  2.52e+03 1.88e-12  7.14e+01   364s
  13   9.56926563e+11  9.56912093e+11  1.93e+02 1.59e-12  9.17e+00   374s
  14   9.56924013e+11  9.56917621e+11  1.14e+02 1.14e-12  4.03e+00   381s
  15   9.56921781e+11  9.56919646e+11  4.69e+01 1.14e-12  1.33e+00   392s
  16   9.56920886e+11  9.56919912e+11  2.11e+01 5.68e-13  6.05e-01   399s
  17   9.56920370e+11  9.56920059e+11  6.21e+00 4.30e-13  1.92e-01   409s
  18   9.56920190e+11  9.56920130e+11  1.10e+00 5.20e-13  3.73e-02   417s
  19   9.56920161e+11  9.56920146e+11  3.00e-01 2.97e-08  9.05e-03   427s
  20   9.56920152e+11  9.56920149e+11  6.79e-02 4.81e-08  1.95e-03   440s
  21   9.56920149e+11  9.56920149e+11  1.49e-03 2.64e-08  1.88e-05   450s
  22   9.56920149e+11  9.56920149e+11  1.20e-08 6.34e-13  3.75e-10   461s

Barrier solved model in 22 iterations and 460.91 seconds
Optimal objective 9.56920149e+11

Crossover log...

  153796 DPushes remaining with DInf 0.0000000e+00               469s
       0 DPushes remaining with DInf 0.0000000e+00               470s
Warning: Markowitz tolerance tightened to 0.5

  294825 PPushes remaining with PInf 0.0000000e+00               470s
  126960 PPushes remaining with PInf 0.0000000e+00               471s
   56781 PPushes remaining with PInf 0.0000000e+00               475s
   44728 PPushes remaining with PInf 0.0000000e+00               480s
   34012 PPushes remaining with PInf 0.0000000e+00               485s
   24543 PPushes remaining with PInf 0.0000000e+00               490s
   15922 PPushes remaining with PInf 0.0000000e+00               495s
    8161 PPushes remaining with PInf 0.0000000e+00               500s
     391 PPushes remaining with PInf 0.0000000e+00               505s
       0 PPushes remaining with PInf 0.0000000e+00               506s

  Push phase complete: Pinf 0.0000000e+00, Dinf 6.6737780e-09    506s

Iteration    Objective       Primal Inf.    Dual Inf.      Time
  352495    9.5692015e+11   0.000000e+00   2.000000e-06    512s
Extra simplex iterations after uncrush: 1
  352496    9.5692015e+11   0.000000e+00   0.000000e+00    514s

Solved with barrier
Solved in 352496 iterations and 518.07 seconds
Optimal objective  9.569201493e+11

User-callback calls 410283, time in user-callback 0.27 sec
